0	5
0	1
0	11
0	9
0	8
0	14
0	2
0	6
1	11
1	10
1	13
1	0
2	12
2	11
2	0
2	14
2	9
2	6
2	2
2	13
2	1
2	3
2	8
2	4
2	15
2	5
2	10
3	0
3	11
3	12
3	5
3	14
4	1
4	0
4	4
4	13
4	15
4	10
4	9
4	5
4	12
4	11
4	8
4	14
4	3
4	2
4	6
4	7